22 3
5 4 4
0 0 0 0 20 2 3 4 5 6 7 8 9 10 11 12 13 14 15 16 17 18 19 20 21
3 1 2 2 1 22
1 0 2 0 2 22 16
1 0 2 0 1 22
4 1 2 2 1 22
1 3 1 2 3 22 16 21
2 2 0 0 3 22 19 13
3 1 1 1 1 22
3 2 2 0 1 22
2 1 1 0 1 22
3 2 0 2 2 22 16
1 3 0 0 1 22
3 2 1 2 2 22 14
3 0 2 0 3 22 21 15
3 0 2 2 2 22 19
4 3 2 2 2 22 19
4 3 0 2 2 22 20
5 1 2 0 1 22
2 3 2 0 1 22
1 1 2 1 1 22
3 1 1 0 1 22
0 0 0 0 0
